 vasp.5.4.4.18Apr17-6-g9f103f2a35 (build Jun 18 2018 15:28:22) complex

 executed on     IFC15_impi5.0.3p date 2024.02.09  17:31:09

 INCAR:
 POTCAR:    PAW_PBE O 08Apr2002
 POTCAR:    PAW_PBE Co 02Aug2007

 POTCAR:    PAW_PBE O 08Apr2002
   VRHFIN =O: s2p4

   TITEL  = PAW_PBE O 08Apr2002
   POMASS =   16.000; ZVAL   =    6.000    mass and valenz
   ENMAX  =  400.000; ENMIN  =  300.000 eV

 POTCAR:    PAW_PBE Co 02Aug2007
   VRHFIN =Co: d8 s1

   TITEL  = PAW_PBE Co 02Aug2007
   POMASS =   58.933; ZVAL   =    9.000    mass and valenz
   ENMAX  =  267.968; ENMIN  =  200.976 eV

 Optimization of the real space projectors (new method)

 maximal supplied QI-value         = 24.76
 optimisation between [QCUT,QGAM] = [ 11.39, 22.77] = [ 36.31,145.25] Ry
 Optimized for a Real-space Cutoff    1.10 Angstroem

   l    n(q)    QCUT    max X(q) W(low)/X(q) W(high)/X(q)  e(spline)
   0      7    11.387    20.381    0.22E-03    0.48E-03    0.18E-06
   0      7    11.387    15.268    0.22E-03    0.52E-03    0.19E-06
   1      7    11.387     5.964    0.22E-03    0.73E-03    0.24E-06
   1      7    11.387     5.382    0.19E-03    0.60E-03    0.21E-06
 Optimization of the real space projectors (new method)

 maximal supplied QI-value         = 16.25
 optimisation between [QCUT,QGAM] = [ 11.38, 22.75] = [ 36.24,144.96] Ry
 Optimized for a Real-space Cutoff    1.43 Angstroem

   l    n(q)    QCUT    max X(q) W(low)/X(q) W(high)/X(q)  e(spline)
   2      9    11.376    65.824    0.18E-03    0.28E-04    0.14E-06
   2      9    11.376    61.429    0.18E-03    0.29E-04    0.14E-06
   0     10    11.376    56.174    0.51E-04    0.12E-03    0.20E-06
   0     10    11.376    31.263    0.46E-04    0.11E-03    0.18E-06
   1      9    11.376    19.828    0.23E-03    0.17E-03    0.10E-06
   1      9    11.376    15.139    0.20E-03    0.14E-03    0.89E-07
  PAW_PBE O 08Apr2002                   :
  PAW_PBE Co 02Aug2007                  :

 POSCAR: O66_Co48
  positions in direct lattice
  velocities in cartesian coordinates
 exchange correlation table for  LEXCH =        8
   RHO(1)=    0.500       N(1)  =     2000
   RHO(2)=  100.500       N(2)  =     4000

 VTST: version 3.2, (02/03/18)

 CHAIN: initializing optimizer

 OPT: Using VASP Dynamics algorithm
 CHAIN: Read ICHAIN            0

 POSCAR: O66_Co48
  positions in direct lattice
  velocities in cartesian coordinates

 ion  position               nearest neighbor table
   1  0.382  0.138  0.541- 110 1.63
   2  0.136  0.380  0.541- 100 1.62
   3  0.388  0.387  0.101- 101 1.93 103 1.93  93 1.94  67 2.02
   4  0.390  0.390  0.362-  94 1.89 102 1.93 104 1.93  68 1.97
   5  0.390  0.890  0.232- 113 1.93 109 1.93  92 1.93  71 1.97
   6  0.396  0.897  0.486- 110 1.84 114 1.87  72 1.92
   7  0.890  0.390  0.232- 106 1.93  97 1.93  99 1.93  69 1.97
   8  0.897  0.396  0.486- 100 1.85  98 1.87  70 1.92
   9  0.884  0.891  0.101- 107 1.93  95 1.93 111 1.96  73 2.00
  10  0.890  0.890  0.362- 108 1.89  96 1.93 112 1.93  74 1.97
  11  0.610  0.110  0.232- 109 1.93 113 1.93  86 1.93  69 1.97
  12  0.609  0.102  0.485- 114 1.83 110 1.90  70 1.91
  13  0.611  0.609  0.101- 101 1.92 103 1.93  83 1.94  73 2.04
  14  0.610  0.610  0.362-  84 1.87 102 1.93 104 1.93  74 1.97
  15  0.114  0.126  0.101-  67 1.91  89 1.93  95 1.94 111 2.08
  16  0.110  0.110  0.362-  96 1.93 112 1.93  90 1.93  68 1.97
  17  0.110  0.890  0.159- 111 1.92 107 1.93  89 1.93  71 1.97
  18  0.110  0.891  0.419- 112 1.91 108 1.92  90 1.93  72 1.96
  19  0.109  0.393  0.031-  87 1.87 105 1.87  67 1.89
  20  0.110  0.390  0.289- 106 1.93  88 1.93  99 1.93  68 1.97
  21  0.891  0.602  0.030- 105 1.85  87 1.85  73 1.94
  22  0.890  0.610  0.289- 106 1.93  97 1.93  88 1.93  74 1.97
  23  0.390  0.610  0.159- 103 1.88  93 1.93  83 1.93  71 1.97
  24  0.389  0.610  0.419-  84 1.91  94 1.92 104 1.92  72 2.03
  25  0.387  0.134  0.032-  67 1.76  91 1.98  85 2.05
  26  0.390  0.110  0.289-  86 1.93 109 1.93  92 1.93  68 1.97
  27  0.146  0.628  0.099- 103 1.87  75 1.90  87 1.99 111 1.99
  28  0.140  0.640  0.354-  88 1.93 112 1.93 104 1.93  76 1.96
  29  0.140  0.140  0.224-  99 1.93 109 1.93  89 1.93  77 1.97
  30  0.146  0.145  0.483-  90 1.89 110 1.91 100 1.91
  31  0.860  0.860  0.224-  97 1.93 113 1.93 107 1.93  77 1.97
  32  0.852  0.852  0.482-  98 1.87 114 1.87 108 1.89
  33  0.856  0.360  0.096- 105 1.88 101 1.89  95 1.91  75 1.97
  34  0.860  0.360  0.354- 106 1.93  96 1.93 102 1.93  76 1.97
  35  0.363  0.854  0.099- 103 1.89  81 1.92 111 1.97  91 2.02
  36  0.360  0.860  0.354-  92 1.93 112 1.93 104 1.93  82 1.97
  37  0.360  0.360  0.224-  99 1.93 109 1.93  93 1.93  79 1.97
  38  0.363  0.363  0.482-  80 1.81  94 1.90 100 1.98 110 1.98
  39  0.645  0.362  0.035-  78 1.80 105 1.93 101 1.99  85 2.11
  40  0.640  0.360  0.297-  86 1.93 106 1.93 102 1.93  79 1.97
  41  0.640  0.860  0.167- 107 1.93 113 1.93  83 1.93  81 1.94
  42  0.639  0.855  0.423- 114 1.85  84 1.90 108 1.93  82 1.97
  43  0.131  0.848  0.038-  87 1.86 111 1.87  91 1.98
  44  0.140  0.860  0.297-  88 1.93  92 1.93 112 1.93  77 1.97
  45  0.360  0.140  0.167-  89 1.93 109 1.93  93 1.93  81 1.95
  46  0.361  0.141  0.427-  94 1.92  90 1.92  82 1.95 110 1.96
  47  0.864  0.150  0.038- 105 1.86  85 1.90  95 1.90
  48  0.860  0.140  0.297- 106 1.93  96 1.93  86 1.93  77 1.97
  49  0.643  0.140  0.098-  95 1.90 101 1.91  81 1.96  85 1.96
  50  0.640  0.140  0.354-  86 1.93  96 1.93 102 1.93  82 1.97
  51  0.640  0.640  0.224-  97 1.93 113 1.93  83 1.93  79 1.97
  52  0.636  0.635  0.485-  80 1.81  98 1.98 114 1.99  84 1.99
  53  0.140  0.360  0.167-  89 1.93  99 1.93  93 1.93  75 1.94
  54  0.141  0.360  0.427-  94 1.92  90 1.92  76 1.95 100 1.96
  55  0.356  0.633  0.036-  78 1.79  87 1.95 103 2.00  91 2.11
  56  0.360  0.640  0.297-  88 1.93  92 1.93 104 1.93  79 1.97
  57  0.860  0.640  0.167- 107 1.93  97 1.93  83 1.93  75 1.94
  58  0.855  0.639  0.423-  98 1.85  84 1.90 108 1.93  76 1.97
  59  0.110  0.610  0.232-  99 1.93  97 1.93  88 1.93  71 1.97
  60  0.103  0.608  0.485-  98 1.83 100 1.90  72 1.90
[...]
  69  0.750  0.250  0.195-  63 1.97  65 1.97  11 1.97   7 1.97
  70  0.756  0.246  0.456-  12 1.91   8 1.92  66 1.95  64 2.03
  71  0.250  0.750  0.195-  23 1.97  17 1.97   5 1.97  59 1.97
  72  0.246  0.755  0.456-  60 1.90   6 1.92  18 1.96  24 2.03
  73  0.752  0.751  0.062-  21 1.94  61 1.94   9 2.00  13 2.04  85 3.12
  74  0.750  0.750  0.326-  14 1.97  22 1.97  62 1.97  10 1.97
  75  0.999  0.498  0.132-  27 1.90  53 1.94  57 1.94  33 1.97
  76  0.003  0.497  0.390-  54 1.95  28 1.96  58 1.97  34 1.97
  77  0.000  0.000  0.260-  44 1.97  31 1.97  29 1.97  48 1.97
  78  0.505  0.503  0.011-  55 1.79  39 1.80 101 3.10 103 3.11
  79  0.500  0.500  0.260-  37 1.97  51 1.97  40 1.97  56 1.97
  80  0.500  0.495  0.512-  52 1.81  38 1.81
  81  0.500  0.999  0.132-  35 1.92  41 1.94  45 1.95  49 1.96
  82  0.497  0.003  0.390-  46 1.95  50 1.97  36 1.97  42 1.97
  83  0.625  0.625  0.163-  41 1.93  51 1.93  23 1.93  57 1.93  63 1.93  13 1.94 103 2.85 101 2.87
                           113 2.88  93 2.88 107 2.88  97 2.88
  84  0.623  0.623  0.421-  14 1.87  42 1.90  58 1.90  64 1.91  24 1.91  52 1.99 114 2.82  98 2.82
                           102 2.83 104 2.83  94 2.85 108 2.91
  85  0.637  0.103  0.036-  61 1.78  47 1.90  49 1.96  25 2.05  39 2.11  95 2.77  91 2.78 101 2.96
                           105 3.00  73 3.12
  86  0.625  0.125  0.293-  50 1.93  40 1.93  26 1.93  62 1.93  11 1.93  48 1.93  96 2.88 106 2.88
                           102 2.88  92 2.88 109 2.88 113 2.88
  87  0.117  0.621  0.036-  21 1.85  43 1.86  19 1.87  55 1.95  27 1.99 105 2.77 111 2.81 103 2.89
                            91 3.02
  88  0.125  0.625  0.293-  28 1.93  56 1.93  20 1.93  44 1.93  22 1.93  59 1.93 112 2.88  92 2.88
                           104 2.88 106 2.88  99 2.88  97 2.88
  89  0.125  0.125  0.163-  53 1.93  45 1.93  29 1.93  17 1.93  65 1.93  15 1.93  95 2.86  99 2.88
                           109 2.88  93 2.88 107 2.88 111 2.90
  90  0.126  0.126  0.423-  30 1.89  54 1.92  46 1.92  66 1.93  18 1.93  16 1.93  94 2.88 112 2.89
                            96 2.89 110 2.89 100 2.90 108 2.90
  91  0.369  0.891  0.035-  43 1.98  25 1.98  61 1.99  35 2.02  55 2.11  85 2.78 111 2.81 103 2.96
                            87 3.02
  92  0.375  0.875  0.293-  36 1.93  56 1.93  62 1.93  44 1.93  26 1.93   5 1.93 104 2.88 112 2.88
                            88 2.88  86 2.88 113 2.88 109 2.88
  93  0.375  0.375  0.163-  23 1.93  63 1.93  45 1.93  37 1.93  53 1.93   3 1.94 103 2.84 101 2.86
                            83 2.88  99 2.88 109 2.88  89 2.88
  94  0.375  0.375  0.422-   4 1.89  38 1.90  54 1.92  64 1.92  24 1.92  46 1.92  84 2.85 102 2.85
                           104 2.85  90 2.88 110 2.94 100 2.94
  95  0.876  0.127  0.098-  49 1.90  47 1.90  65 1.91  33 1.91   9 1.93  15 1.94  85 2.77 105 2.80
                            89 2.86 101 2.88 107 2.88 111 2.90
  96  0.875  0.125  0.358-  66 1.91  16 1.93  10 1.93  50 1.93  34 1.93  48 1.93 108 2.86 102 2.88
                           106 2.88  86 2.88 112 2.88  90 2.89
  97  0.875  0.625  0.228-  51 1.93  57 1.93   7 1.93  31 1.93  22 1.93  59 1.93  83 2.88 113 2.88
                           107 2.88  99 2.88 106 2.88  88 2.88
  98  0.879  0.624  0.482-  60 1.83  58 1.85   8 1.87  32 1.87  52 1.98 108 2.78  84 2.82 100 2.83
                           114 2.94
  99  0.125  0.375  0.228-  37 1.93  53 1.93  59 1.93  29 1.93  20 1.93   7 1.93  93 2.88 109 2.88
                            89 2.88  97 2.88  88 2.88 106 2.88
 100  0.122  0.377  0.489-   2 1.62   8 1.85  60 1.90  30 1.91  54 1.96  38 1.98  98 2.83  90 2.90
                           110 2.94  94 2.94
 101  0.624  0.374  0.099-  33 1.89  63 1.89  49 1.91  13 1.92   3 1.93  39 1.99 105 2.85  93 2.86
                            83 2.87 103 2.87  95 2.88  85 2.96  78 3.10
 102  0.625  0.375  0.358-  64 1.92  14 1.93  34 1.93   4 1.93  50 1.93  40 1.93  84 2.83  94 2.85
                           106 2.88  96 2.88 104 2.88  86 2.88
 103  0.375  0.623  0.099-  27 1.87  23 1.88  35 1.89  13 1.93   3 1.93  55 2.00  93 2.84  83 2.85
                           101 2.87  87 2.89 111 2.89  91 2.96  78 3.11
 104  0.375  0.625  0.358-  24 1.92  14 1.93   4 1.93  56 1.93  36 1.93  28 1.93  84 2.83  94 2.85
                            92 2.88 112 2.88 102 2.88  88 2.88
 105  0.881  0.377  0.037-  21 1.85  47 1.86  19 1.87  33 1.88  39 1.93  87 2.77  95 2.80 101 2.85
                            85 3.00
 106  0.875  0.375  0.293-  34 1.93  48 1.93  20 1.93  40 1.93   7 1.93  22 1.93 102 2.88  96 2.88
                            86 2.88  88 2.88  97 2.88  99 2.88
 107  0.875  0.875  0.163-  57 1.93  41 1.93  31 1.93  17 1.93  65 1.93   9 1.93 111 2.87  95 2.88
                            83 2.88  97 2.88 113 2.88  89 2.88
 108  0.875  0.875  0.422-  10 1.89  32 1.89  66 1.92  18 1.92  58 1.93  42 1.93  98 2.78 114 2.78
                           112 2.86  96 2.86  90 2.90  84 2.91
 109  0.375  0.125  0.228-  37 1.93  45 1.93  11 1.93  29 1.93  26 1.93   5 1.93  93 2.88  99 2.88
                            89 2.88 113 2.88  86 2.88  92 2.88
[...]
 total energy-change (2. order) : 0.2808520E-08  ( 0.0000000E+00)
 number of electron     828.0000020 magnetization      -5.9999997
 augmentation part      288.1295052 magnetization      -4.0525576

[...]

 eigenvalue-minimisations  :     0
 total energy-change (2. order) :-0.1469743E-08  ( 0.0000000E+00)
 number of electron     828.0000020 magnetization      -5.9999997
 augmentation part      288.1295052 magnetization      -4.0525576

[...]

--------------------------------------- Iteration      1(   6)  ---------------------------------------

 eigenvalue-minimisations  :     0
 total energy-change (2. order) : 0.1877197E-08  ( 0.0000000E+00)
 number of electron     828.0000020 magnetization      -5.9999997
 augmentation part      288.1295052 magnetization      -4.0525576

 Free energy of the ion-electron system (eV)
  alpha Z        PSCENC =      1506.12382579
  Ewald energy   TEWEN  =    498986.30201855
  -Hartree energ DENC   =   -565039.05643261
  -exchange      EXHF   =         0.00000000
  -V(xc)+E(xc)   XCENC  =      2009.14223104
  PAW double counting   =     81320.50190874   -83853.85090793
  entropy T*S    EENTRO =        -0.00000000
  eigenvalues    EBANDS =     -5325.78742850
  atomic energy  EATOM  =     67112.18244413
  Solvation  Ediel_sol  =         0.00000000
  free energy    TOTEN  =     -3284.44234079 eV

  energy without entropy =    -3284.44234079  energy(sigma->0) =    -3284.44234079
  exchange ACFDT corr.  =         0.00000000  see jH, gK, PRB 81, 115126

 average (electrostatic) potential at core
  the test charge radii are     0.7215  1.0452
  (the norm of the test charge is              1.0000)
       1 -69.4353       2 -69.4479       3 -68.0394       4 -68.3657       5 -68.1853
       6 -68.1175       7 -68.1991       8 -68.1146       9 -67.9883      10 -68.1617
      11 -68.1916      12 -67.8190      13 -68.1349      14 -68.4938      15 -67.9588
      16 -68.0920      17 -68.0769      18 -68.1135      19 -67.6264      20 -68.1974
      21 -67.6597      22 -68.2071      23 -68.3472      24 -68.3193      25 -67.9977
      26 -68.1948      27 -68.3749      28 -68.2260      29 -68.1450      30 -67.9254
      31 -68.1518      32 -67.4956      33 -68.5233      34 -68.2177      35 -67.9298
      36 -68.2168      37 -68.1980      38 -69.1805      39 -68.7445      40 -68.2311
      41 -68.1689      42 -68.6569      43 -67.6459      44 -68.1658      45 -68.1436
      46 -68.2844      47 -67.6701      48 -68.1669      49 -68.3720      50 -68.2263
      51 -68.2156      52 -68.9780      53 -68.1627      54 -68.2752      55 -68.8034
      56 -68.2302      57 -68.1961      58 -68.6540      59 -68.1925      60 -67.8162
      61 -68.0541      62 -68.2024      63 -68.3713      64 -68.3240      65 -68.0913
      66 -68.1206      67 -81.6251      68 -81.8529      69 -81.8420      70 -81.7430
      71 -81.8183      72 -81.7365      73 -81.7012      74 -81.8866      75 -81.7194
      76 -81.8561      77 -81.7922      78 -83.9734      79 -81.8567      80 -84.1892
      81 -81.6324      82 -81.8581      83 -82.1983      84 -82.4323      85 -82.6888
      86 -82.1861      87 -82.5832      88 -82.1868      89 -82.0645      90 -82.0079
      91 -82.7918      92 -82.1819      93 -82.1640      94 -82.3086      95 -81.9625
      96 -82.1329      97 -82.1747      98 -82.4852      99 -82.1608     100 -83.8992
     101 -82.3084     102 -82.2641     103 -82.2119     104 -82.2635     105 -82.4138
     106 -82.1862     107 -82.0802     108 -82.0473     109 -82.1554     110 -83.9006
     111 -82.1900     112 -82.1322     113 -82.1648     114 -82.4905

 E-fermi :  -0.2536     XC(G=0):  -5.5199     alpha+bet : -6.8075

 spin component 1

 k-point     1 :       0.0000    0.0000    0.0000
  band No.  band energies     occupation
      1     -21.8016      1.00000
      2     -21.5561      1.00000
      3     -21.4491      1.00000
      4     -21.3537      1.00000
      5     -21.1332      1.00000
      6     -21.0298      1.00000
      7     -20.9139      1.00000
      8     -20.9122      1.00000
      9     -20.8759      1.00000
     10     -20.8404      1.00000
     11     -20.8192      1.00000
     12     -20.6982      1.00000
     13     -20.6441      1.00000
     14     -20.5544      1.00000
     15     -20.5046      1.00000
     16     -20.4321      1.00000
     17     -20.3495      1.00000
     18     -20.2863      1.00000
     19     -20.2192      1.00000
     20     -20.1881      1.00000
     21     -20.1077      1.00000
     22     -20.0856      1.00000
     23     -20.0366      1.00000
     24     -20.0067      1.00000
     25     -20.0034      1.00000
     26     -19.9950      1.00000
     27     -19.9430      1.00000
     28     -19.9398      1.00000
     29     -19.9236      1.00000
     30     -19.9039      1.00000
     31     -19.9025      1.00000
     32     -19.8955      1.00000
     33     -19.8946      1.00000
     34     -19.8768      1.00000
     35     -19.8632      1.00000
     36     -19.8573      1.00000
     37     -19.8289      1.00000
     38     -19.8090      1.00000
     39     -19.8082      1.00000
     40     -19.7862      1.00000
     41     -19.7789      1.00000
     42     -19.7569      1.00000
     43     -19.7391      1.00000
     44     -19.7256      1.00000
     45     -19.7138      1.00000
     46     -19.6821      1.00000
     47     -19.6739      1.00000
     48     -19.6721      1.00000
     49     -19.6671      1.00000
     50     -19.6547      1.00000
     51     -19.6416      1.00000
     52     -19.6306      1.00000
     53     -19.6238      1.00000
     54     -19.5750      1.00000
     55     -19.5146      1.00000
     56     -19.4909      1.00000
     57     -19.4452      1.00000
     58     -19.4045      1.00000
     59     -19.3294      1.00000
     60     -19.2729      1.00000
[...]
    766       7.0441      0.00000
    767       7.0441      0.00000
    768       7.0441      0.00000
    769       7.0441      0.00000
    770       7.0441      0.00000
    771       7.0441      0.00000
    772       7.0441      0.00000
    773       7.0441      0.00000
    774       7.0441      0.00000
    775      18.9525      0.00000
    776       7.0441      0.00000
    777       7.0441      0.00000
    778       7.0441      0.00000
    779       7.0441      0.00000
    780       7.0441      0.00000

 spin component 2

 k-point     1 :       0.0000    0.0000    0.0000
  band No.  band energies     occupation
      1     -21.8562      1.00000
      2     -21.5801      1.00000
      3     -21.4734      1.00000
      4     -21.2967      1.00000
      5     -21.2859      1.00000
      6     -21.1051      1.00000
      7     -21.0257      1.00000
      8     -20.9534      1.00000
      9     -20.9006      1.00000
     10     -20.8960      1.00000
     11     -20.8324      1.00000
     12     -20.7945      1.00000
     13     -20.7788      1.00000
     14     -20.7475      1.00000
     15     -20.5282      1.00000
     16     -20.4532      1.00000
     17     -20.3696      1.00000
     18     -20.3380      1.00000
     19     -20.2653      1.00000
     20     -20.2194      1.00000
     21     -20.1799      1.00000
     22     -20.1321      1.00000
     23     -20.0763      1.00000
     24     -20.0404      1.00000
     25     -20.0321      1.00000
     26     -19.9996      1.00000
     27     -19.9821      1.00000
     28     -19.9547      1.00000
     29     -19.9545      1.00000
     30     -19.9435      1.00000
     31     -19.9100      1.00000
     32     -19.9004      1.00000
     33     -19.8878      1.00000
     34     -19.8859      1.00000
     35     -19.8797      1.00000
     36     -19.8525      1.00000
     37     -19.8371      1.00000
     38     -19.8176      1.00000
     39     -19.8130      1.00000
     40     -19.8080      1.00000
     41     -19.8010      1.00000
     42     -19.7788      1.00000
     43     -19.7595      1.00000
     44     -19.7446      1.00000
     45     -19.7410      1.00000
     46     -19.7243      1.00000
     47     -19.7217      1.00000
     48     -19.7072      1.00000
     49     -19.6826      1.00000
     50     -19.6801      1.00000
     51     -19.6710      1.00000
     52     -19.6639      1.00000
     53     -19.6547      1.00000
     54     -19.6458      1.00000
     55     -19.6202      1.00000
     56     -19.6079      1.00000
     57     -19.5846      1.00000
     58     -19.5211      1.00000
     59     -19.3441      1.00000
     60     -19.3376      1.00000
[...]
    766       7.0441      0.00000
    767       7.0441      0.00000
    768       7.0441      0.00000
    769       7.0441      0.00000
    770       7.0441      0.00000
    771       7.0441      0.00000
    772       7.0441      0.00000
    773       7.0441      0.00000
    774       7.0441      0.00000
    775       7.0441      0.00000
    776       7.0441      0.00000
    777       7.0441      0.00000
    778       7.1506      0.00000
    779       7.0441      0.00000
    780       7.0441      0.00000

 soft charge-density along one line, spin component           1
         0         1         2         3         4         5         6         7         8         9
 total charge-density along one line

 soft charge-density along one line, spin component           2
         0         1         2         3         4         5         6         7         8         9
 total charge-density along one line

------------------------ aborting loop because EDIFF is reached ----------------------------------------

 total charge

# of ion       s       p       d       tot
    1        1.619   3.220   0.000   4.840
    2        1.620   3.220   0.000   4.840
    3        1.559   3.484   0.000   5.043
    4        1.556   3.511   0.000   5.068
    5        1.556   3.504   0.000   5.060
    6        1.567   3.459   0.000   5.026
    7        1.556   3.504   0.000   5.060
    8        1.566   3.459   0.000   5.026
    9        1.556   3.488   0.000   5.045
   10        1.556   3.513   0.000   5.069
   11        1.556   3.504   0.000   5.060
   12        1.564   3.472   0.000   5.036
   13        1.558   3.489   0.000   5.047
   14        1.557   3.510   0.000   5.067
   15        1.558   3.480   0.000   5.038
   16        1.556   3.505   0.000   5.061
   17        1.556   3.504   0.000   5.061
   18        1.557   3.505   0.000   5.062
   19        1.562   3.477   0.000   5.039
   20        1.556   3.504   0.000   5.060
   21        1.562   3.481   0.000   5.043
   22        1.556   3.504   0.000   5.060
   23        1.558   3.506   0.000   5.063
   24        1.558   3.497   0.000   5.055
   25        1.570   3.435   0.000   5.005
   26        1.556   3.504   0.000   5.060
   27        1.560   3.490   0.000   5.051
   28        1.556   3.505   0.000   5.061
   29        1.556   3.504   0.000   5.060
   30        1.583   3.399   0.000   4.982
   31        1.556   3.504   0.000   5.060
   32        1.573   3.448   0.000   5.021
   33        1.560   3.510   0.000   5.071
   34        1.556   3.505   0.000   5.061
   35        1.558   3.510   0.000   5.068
   36        1.556   3.505   0.000   5.061
   37        1.556   3.504   0.000   5.060
   38        1.567   3.516   0.000   5.083
   39        1.560   3.506   0.000   5.065
   40        1.556   3.504   0.000   5.060
   41        1.557   3.508   0.000   5.065
   42        1.561   3.509   0.000   5.070
   43        1.574   3.430   0.000   5.005
   44        1.556   3.504   0.000   5.060
   45        1.557   3.506   0.000   5.063
   46        1.561   3.503   0.000   5.064
   47        1.574   3.436   0.000   5.010
   48        1.556   3.504   0.000   5.060
   49        1.559   3.495   0.000   5.053
   50        1.556   3.505   0.000   5.061
   51        1.556   3.504   0.000   5.060
   52        1.557   3.514   0.000   5.071
   53        1.557   3.509   0.000   5.065
   54        1.561   3.504   0.000   5.064
   55        1.560   3.506   0.000   5.066
   56        1.556   3.504   0.000   5.060
   57        1.556   3.509   0.000   5.065
   58        1.561   3.509   0.000   5.070
   59        1.556   3.504   0.000   5.060
   60        1.564   3.472   0.000   5.036
[...]
  100        0.513   0.844   7.192   8.549
  101        0.422   0.661   7.211   8.294
  102        0.421   0.658   7.201   8.280
  103        0.427   0.678   7.224   8.329
  104        0.420   0.658   7.201   8.280
  105        0.436   0.654   7.197   8.287
  106        0.419   0.656   7.196   8.271
  107        0.419   0.655   7.197   8.272
  108        0.429   0.680   7.227   8.336
  109        0.419   0.656   7.197   8.272
  110        0.513   0.844   7.190   8.546
  111        0.397   0.606   7.155   8.157
  112        0.421   0.659   7.200   8.280
  113        0.419   0.656   7.197   8.272
  114        0.433   0.640   7.213   8.286
tot        122.351 258.050 343.477 723.878

 magnetization (x)

[...]

  FREE ENERGIE OF THE ION-ELECTRON SYSTEM (eV)
  free  energy   TOTEN  =     -3284.44234079 eV

  energy  without entropy=    -3284.44234079  energy(sigma->0) =    -3284.44234079

 stress matrix after NEB project (eV)
      0.00000      0.00000      0.00000
      0.00000      0.00000      0.00000
      0.00000      0.00000      0.00000
  FORCES: max atom, RMS     0.000000    0.000000
  FORCE total and by dimension    0.000000    0.000000
  Stress total and by dimension    0.000000    0.000000
 writing wavefunctions

 total charge

[...]

 magnetization (x)

# of ion       s       p       d       tot
    1       -0.013  -0.861   0.000  -0.874
    2       -0.013  -0.865   0.000  -0.878
    3       -0.006  -0.021   0.000  -0.027
    4       -0.003  -0.025   0.000  -0.029
    5       -0.004  -0.028   0.000  -0.032
    6       -0.003   0.064   0.000   0.061
    7       -0.003  -0.028   0.000  -0.032
    8       -0.003   0.068   0.000   0.065
    9       -0.004  -0.030   0.000  -0.034
   10       -0.004  -0.032   0.000  -0.036
   11       -0.004  -0.029   0.000  -0.032
   12       -0.005  -0.013   0.000  -0.018
   13       -0.004  -0.022   0.000  -0.027
   14       -0.004  -0.024   0.000  -0.028
   15       -0.004  -0.008   0.000  -0.013
   16       -0.003  -0.029   0.000  -0.032
   17       -0.004  -0.031   0.000  -0.035
   18       -0.004  -0.031   0.000  -0.036
   19       -0.003   0.012   0.000   0.009
   20       -0.004  -0.029   0.000  -0.032
   21       -0.003  -0.004   0.000  -0.007
   22       -0.003  -0.029   0.000  -0.032
   23       -0.004  -0.025   0.000  -0.029
   24       -0.005  -0.021   0.000  -0.026
   25       -0.004   0.127   0.000   0.123
   26       -0.004  -0.029   0.000  -0.032
   27        0.004   0.020   0.000   0.024
   28        0.004   0.029   0.000   0.033
   29        0.004   0.029   0.000   0.032
   30       -0.001   0.030   0.000   0.029
   31        0.004   0.029   0.000   0.032
   32        0.000  -0.019   0.000  -0.019
   33        0.004   0.020   0.000   0.024
   34        0.004   0.029   0.000   0.033
   35       -0.002  -0.047   0.000  -0.049
   36        0.004   0.029   0.000   0.033
   37        0.003   0.029   0.000   0.032
   38       -0.000   0.065   0.000   0.064
   39        0.002   0.076   0.000   0.078
   40        0.004   0.028   0.000   0.032
   41        0.004   0.030   0.000   0.034
   42        0.004   0.027   0.000   0.031
   43       -0.001   0.065   0.000   0.064
   44        0.004   0.028   0.000   0.032
   45        0.004   0.029   0.000   0.033
   46        0.005   0.046   0.000   0.051
   47        0.001   0.027   0.000   0.028
   48        0.004   0.028   0.000   0.032
   49        0.004   0.018   0.000   0.021
   50        0.004   0.029   0.000   0.033
   51        0.003   0.028   0.000   0.031
   52        0.002   0.080   0.000   0.083
   53        0.004   0.031   0.000   0.035
   54        0.005   0.047   0.000   0.051
   55       -0.000   0.089   0.000   0.089
   56        0.004   0.028   0.000   0.032
   57        0.004   0.029   0.000   0.033
   58        0.004   0.026   0.000   0.031
   59       -0.003  -0.028   0.000  -0.032
   60       -0.005  -0.012   0.000  -0.017
[...]
  100       -0.004   0.004  -1.078  -1.078
  101        0.001   0.001   0.003   0.005
  102        0.000   0.000   0.003   0.003
  103        0.000   0.001   0.008   0.009
  104        0.000   0.000   0.003   0.003
  105       -0.000   0.003   0.007   0.009
  106        0.000   0.000   0.001   0.001
  107        0.000  -0.000  -0.003  -0.003
  108       -0.002  -0.001  -0.011  -0.014
  109       -0.000   0.000   0.001   0.001
  110       -0.004   0.004  -1.078  -1.078
  111       -0.001  -0.000   0.012   0.010
  112       -0.000   0.000  -0.000  -0.000
  113        0.000   0.000   0.001   0.001
  114       -0.000   0.003  -0.018  -0.016
tot         -0.136  -1.062  -4.280  -5.478